\ Model Weights
\ LP format - for model browsing. Use MPS format to capture full model detail.
Maximize
  8.321 q1 + 6.104 q3 + 75.006 q5 + 17.528 q6 + 30.957 q9 + 54.01 q11
   + 9.092 q12 + 8.568 q14 + 56.115 q17 + 46.673 q18
Subject To
 R00: q0 = 0
 R01: q21 = 0
 R10: q1 - q2 = 0
 R11: q3 - q4 = 0
 R12: q5 - q8 = 0
 R13: q6 - q7 = 0
 R14: q9 - q10 = 0
 R15: q11 - q16 = 0
 R16: q12 - q13 = 0
 R17: q14 - q15 = 0
 R18: q17 - q19 = 0
 R19: q18 - q20 = 0
 R20: q1 >= 0
 R21: q2 >= 0
 R22: q3 >= 0
 R23: q4 >= 0
 R24: q5 >= 0
 R25: q6 >= 0
 R26: q7 >= 0
 R27: q8 >= 0
 R28: q9 >= 0
 R29: q10 >= 0
 R210: q11 >= 0
 R211: q12 >= 0
 R212: q13 >= 0
 R213: q14 >= 0
 R214: q15 >= 0
 R215: q16 >= 0
 R216: q17 >= 0
 R217: q18 >= 0
 R218: q19 >= 0
 R219: q20 >= 0
 R30: q1 <= 8
 R31: q3 <= 13
 R32: q5 <= 10
 R33: q6 <= 10
 R34: q9 <= 8
 R35: q11 <= 5
 R36: q12 <= 4
 R37: q14 <= 15
 R38: q17 <= 12
 R39: q18 <= 3
 R40: Q0 + q1 - Q1 = 0
 R41: Q1 - q2 - Q2 = 0
 R42: Q2 + q3 - Q3 = 0
 R43: Q3 - q4 - Q4 = 0
 R44: Q4 + q5 - Q5 = 0
 R45: Q5 + q6 - Q6 = 0
 R46: Q6 - q7 - Q7 = 0
 R47: Q7 - q8 - Q8 = 0
 R48: Q8 + q9 - Q9 = 0
 R49: Q9 - q10 - Q10 = 0
 R410: Q10 + q11 - Q11 = 0
 R411: Q11 + q12 - Q12 = 0
 R412: Q12 - q13 - Q13 = 0
 R413: Q13 + q14 - Q14 = 0
 R414: Q14 - q15 - Q15 = 0
 R415: Q15 - q16 - Q16 = 0
 R416: Q16 + q17 - Q17 = 0
 R417: Q17 + q18 - Q18 = 0
 R418: Q18 - q19 - Q19 = 0
 R419: Q19 - q20 - Q20 = 0
 R420: Q20 - q21 - Q21 = 0
 R5: Q21 = 0
 R60: Q0 <= 15
 R61: Q1 <= 15
 R62: Q2 <= 15
 R63: Q3 <= 15
 R64: Q4 <= 15
 R65: Q5 <= 15
 R66: Q6 <= 15
 R67: Q7 <= 15
 R68: Q8 <= 15
 R69: Q9 <= 15
 R610: Q10 <= 15
 R611: Q11 <= 15
 R612: Q12 <= 15
 R613: Q13 <= 15
 R614: Q14 <= 15
 R615: Q15 <= 15
 R616: Q16 <= 15
 R617: Q17 <= 15
 R618: Q18 <= 15
 R619: Q19 <= 15
 R620: Q20 <= 15
 R621: Q21 <= 15
 R70: Q0 >= 0
 R71: Q1 >= 0
 R72: Q2 >= 0
 R73: Q3 >= 0
 R74: Q4 >= 0
 R75: Q5 >= 0
 R76: Q6 >= 0
 R77: Q7 >= 0
 R78: Q8 >= 0
 R79: Q9 >= 0
 R710: Q10 >= 0
 R711: Q11 >= 0
 R712: Q12 >= 0
 R713: Q13 >= 0
 R714: Q14 >= 0
 R715: Q15 >= 0
 R716: Q16 >= 0
 R717: Q17 >= 0
 R718: Q18 >= 0
 R719: Q19 >= 0
 R720: Q20 >= 0
 R721: Q21 >= 0
Bounds
End
